NAME : portcgen-29-14
COMMENT : portcgen N=29, seed=14
TYPE : TSP
DIMENSION : 29
EDGE_WEIGHT_TYPE : EUC_2D
NODE_COORD_SECTION
1 -482702 -202972
2 -273719 334411
3 68586 -112643
4 116094 -84764
5 303819 -116471
6 131951 -133006
7 197616 -50401
8 269667 -47737
9 -41529 -208248
10 -150395 -45155
11 -122838 -55436
12 12185 54353
13 -227554 -61330
14 165611 405646
15 93733 205794
16 84128 78802
17 127171 -310248
18 92849 -89967
19 95717 -121730
20 -156301 197136
21 -234792 -304792
22 -104791 -283689
23 376456 -242597
24 -79930 -70300
25 -151499 -201548
26 153411 72989
27 506854 -89954
28 77171 125753
29 -259573 236239
